p cnf 606 2330
1 0
-4 0
-9 0
-10 0
12 0
-14 0
-15 0
18 0
-25 0
-26 0
28 0
32 0
-35 0
-36 0
1 2 3 0
-1 -2 -3 0
1 7 13 0
-1 -7 -13 0
2 3 4 0
-2 -3 -4 0
7 13 19 0
-7 -13 -19 0
3 4 5 0
-3 -4 -5 0
13 19 25 0
-13 -19 -25 0
4 5 6 0
-4 -5 -6 0
19 25 31 0
-19 -25 -31 0
7 8 9 0
-7 -8 -9 0
2 8 14 0
-2 -8 -14 0
8 9 10 0
-8 -9 -10 0
8 14 20 0
-8 -14 -20 0
9 10 11 0
-9 -10 -11 0
14 20 26 0
-14 -20 -26 0
10 11 12 0
-10 -11 -12 0
20 26 32 0
-20 -26 -32 0
13 14 15 0
-13 -14 -15 0
3 9 15 0
-3 -9 -15 0
14 15 16 0
-14 -15 -16 0
9 15 21 0
-9 -15 -21 0
15 16 17 0
-15 -16 -17 0
15 21 27 0
-15 -21 -27 0
16 17 18 0
-16 -17 -18 0
21 27 33 0
-21 -27 -33 0
19 20 21 0
-19 -20 -21 0
4 10 16 0
-4 -10 -16 0
20 21 22 0
-20 -21 -22 0
10 16 22 0
-10 -16 -22 0
21 22 23 0
-21 -22 -23 0
16 22 28 0
-16 -22 -28 0
22 23 24 0
-22 -23 -24 0
22 28 34 0
-22 -28 -34 0
25 26 27 0
-25 -26 -27 0
5 11 17 0
-5 -11 -17 0
26 27 28 0
-26 -27 -28 0
11 17 23 0
-11 -17 -23 0
27 28 29 0
-27 -28 -29 0
17 23 29 0
-17 -23 -29 0
28 29 30 0
-28 -29 -30 0
23 29 35 0
-23 -29 -35 0
31 32 33 0
-31 -32 -33 0
6 12 18 0
-6 -12 -18 0
32 33 34 0
-32 -33 -34 0
12 18 24 0
-12 -18 -24 0
33 34 35 0
-33 -34 -35 0
18 24 30 0
-18 -24 -30 0
34 35 36 0
-34 -35 -36 0
24 30 36 0
-24 -30 -36 0
3 4 5 6 0
-3 -4 -5 -6 0
13 19 25 31 0
-13 -19 -25 -31 0
9 10 11 12 0
-9 -10 -11 -12 0
14 20 26 32 0
-14 -20 -26 -32 0
15 16 17 18 0
-15 -16 -17 -18 0
15 21 27 33 0
-15 -21 -27 -33 0
21 22 23 24 0
-21 -22 -23 -24 0
16 22 28 34 0
-16 -22 -28 -34 0
27 28 29 30 0
-27 -28 -29 -30 0
17 23 29 35 0
-17 -23 -29 -35 0
33 34 35 36 0
-33 -34 -35 -36 0
18 24 30 36 0
-18 -24 -30 -36 0
2 4 5 6 0
-2 -4 -5 -6 0
7 19 25 31 0
-7 -19 -25 -31 0
8 10 11 12 0
-8 -10 -11 -12 0
8 20 26 32 0
-8 -20 -26 -32 0
14 16 17 18 0
-14 -16 -17 -18 0
9 21 27 33 0
-9 -21 -27 -33 0
20 22 23 24 0
-20 -22 -23 -24 0
10 22 28 34 0
-10 -22 -28 -34 0
26 28 29 30 0
-26 -28 -29 -30 0
11 23 29 35 0
-11 -23 -29 -35 0
32 34 35 36 0
-32 -34 -35 -36 0
12 24 30 36 0
-12 -24 -30 -36 0
2 3 5 6 0
-2 -3 -5 -6 0
7 13 25 31 0
-7 -13 -25 -31 0
8 9 11 12 0
-8 -9 -11 -12 0
8 14 26 32 0
-8 -14 -26 -32 0
14 15 17 18 0
-14 -15 -17 -18 0
9 15 27 33 0
-9 -15 -27 -33 0
20 21 23 24 0
-20 -21 -23 -24 0
10 16 28 34 0
-10 -16 -28 -34 0
26 27 29 30 0
-26 -27 -29 -30 0
11 17 29 35 0
-11 -17 -29 -35 0
32 33 35 36 0
-32 -33 -35 -36 0
12 18 30 36 0
-12 -18 -30 -36 0
2 3 4 6 0
-2 -3 -4 -6 0
7 13 19 31 0
-7 -13 -19 -31 0
8 9 10 12 0
-8 -9 -10 -12 0
8 14 20 32 0
-8 -14 -20 -32 0
14 15 16 18 0
-14 -15 -16 -18 0
9 15 21 33 0
-9 -15 -21 -33 0
20 21 22 24 0
-20 -21 -22 -24 0
10 16 22 34 0
-10 -16 -22 -34 0
26 27 28 30 0
-26 -27 -28 -30 0
11 17 23 35 0
-11 -17 -23 -35 0
32 33 34 36 0
-32 -33 -34 -36 0
12 18 24 36 0
-12 -18 -24 -36 0
2 3 4 5 0
-2 -3 -4 -5 0
7 13 19 25 0
-7 -13 -19 -25 0
8 9 10 11 0
-8 -9 -10 -11 0
8 14 20 26 0
-8 -14 -20 -26 0
14 15 16 17 0
-14 -15 -16 -17 0
9 15 21 27 0
-9 -15 -21 -27 0
20 21 22 23 0
-20 -21 -22 -23 0
10 16 22 28 0
-10 -16 -22 -28 0
26 27 28 29 0
-26 -27 -28 -29 0
11 17 23 29 0
-11 -17 -23 -29 0
32 33 34 35 0
-32 -33 -34 -35 0
12 18 24 30 0
-12 -18 -24 -30 0
1 4 5 6 0
-1 -4 -5 -6 0
1 19 25 31 0
-1 -19 -25 -31 0
7 10 11 12 0
-7 -10 -11 -12 0
2 20 26 32 0
-2 -20 -26 -32 0
13 16 17 18 0
-13 -16 -17 -18 0
3 21 27 33 0
-3 -21 -27 -33 0
19 22 23 24 0
-19 -22 -23 -24 0
4 22 28 34 0
-4 -22 -28 -34 0
25 28 29 30 0
-25 -28 -29 -30 0
5 23 29 35 0
-5 -23 -29 -35 0
31 34 35 36 0
-31 -34 -35 -36 0
6 24 30 36 0
-6 -24 -30 -36 0
1 3 5 6 0
-1 -3 -5 -6 0
1 13 25 31 0
-1 -13 -25 -31 0
7 9 11 12 0
-7 -9 -11 -12 0
2 14 26 32 0
-2 -14 -26 -32 0
13 15 17 18 0
-13 -15 -17 -18 0
3 15 27 33 0
-3 -15 -27 -33 0
19 21 23 24 0
-19 -21 -23 -24 0
4 16 28 34 0
-4 -16 -28 -34 0
25 27 29 30 0
-25 -27 -29 -30 0
5 17 29 35 0
-5 -17 -29 -35 0
31 33 35 36 0
-31 -33 -35 -36 0
6 18 30 36 0
-6 -18 -30 -36 0
1 3 4 6 0
-1 -3 -4 -6 0
1 13 19 31 0
-1 -13 -19 -31 0
7 9 10 12 0
-7 -9 -10 -12 0
2 14 20 32 0
-2 -14 -20 -32 0
13 15 16 18 0
-13 -15 -16 -18 0
3 15 21 33 0
-3 -15 -21 -33 0
19 21 22 24 0
-19 -21 -22 -24 0
4 16 22 34 0
-4 -16 -22 -34 0
25 27 28 30 0
-25 -27 -28 -30 0
5 17 23 35 0
-5 -17 -23 -35 0
31 33 34 36 0
-31 -33 -34 -36 0
6 18 24 36 0
-6 -18 -24 -36 0
1 3 4 5 0
-1 -3 -4 -5 0
1 13 19 25 0
-1 -13 -19 -25 0
7 9 10 11 0
-7 -9 -10 -11 0
2 14 20 26 0
-2 -14 -20 -26 0
13 15 16 17 0
-13 -15 -16 -17 0
3 15 21 27 0
-3 -15 -21 -27 0
19 21 22 23 0
-19 -21 -22 -23 0
4 16 22 28 0
-4 -16 -22 -28 0
25 27 28 29 0
-25 -27 -28 -29 0
5 17 23 29 0
-5 -17 -23 -29 0
31 33 34 35 0
-31 -33 -34 -35 0
6 18 24 30 0
-6 -18 -24 -30 0
1 2 5 6 0
-1 -2 -5 -6 0
1 7 25 31 0
-1 -7 -25 -31 0
7 8 11 12 0
-7 -8 -11 -12 0
2 8 26 32 0
-2 -8 -26 -32 0
13 14 17 18 0
-13 -14 -17 -18 0
3 9 27 33 0
-3 -9 -27 -33 0
19 20 23 24 0
-19 -20 -23 -24 0
4 10 28 34 0
-4 -10 -28 -34 0
25 26 29 30 0
-25 -26 -29 -30 0
5 11 29 35 0
-5 -11 -29 -35 0
31 32 35 36 0
-31 -32 -35 -36 0
6 12 30 36 0
-6 -12 -30 -36 0
1 2 4 6 0
-1 -2 -4 -6 0
1 7 19 31 0
-1 -7 -19 -31 0
7 8 10 12 0
-7 -8 -10 -12 0
2 8 20 32 0
-2 -8 -20 -32 0
13 14 16 18 0
-13 -14 -16 -18 0
3 9 21 33 0
-3 -9 -21 -33 0
19 20 22 24 0
-19 -20 -22 -24 0
4 10 22 34 0
-4 -10 -22 -34 0
25 26 28 30 0
-25 -26 -28 -30 0
5 11 23 35 0
-5 -11 -23 -35 0
31 32 34 36 0
-31 -32 -34 -36 0
6 12 24 36 0
-6 -12 -24 -36 0
1 2 4 5 0
-1 -2 -4 -5 0
1 7 19 25 0
-1 -7 -19 -25 0
7 8 10 11 0
-7 -8 -10 -11 0
2 8 20 26 0
-2 -8 -20 -26 0
13 14 16 17 0
-13 -14 -16 -17 0
3 9 21 27 0
-3 -9 -21 -27 0
19 20 22 23 0
-19 -20 -22 -23 0
4 10 22 28 0
-4 -10 -22 -28 0
25 26 28 29 0
-25 -26 -28 -29 0
5 11 23 29 0
-5 -11 -23 -29 0
31 32 34 35 0
-31 -32 -34 -35 0
6 12 24 30 0
-6 -12 -24 -30 0
1 2 3 6 0
-1 -2 -3 -6 0
1 7 13 31 0
-1 -7 -13 -31 0
7 8 9 12 0
-7 -8 -9 -12 0
2 8 14 32 0
-2 -8 -14 -32 0
13 14 15 18 0
-13 -14 -15 -18 0
3 9 15 33 0
-3 -9 -15 -33 0
19 20 21 24 0
-19 -20 -21 -24 0
4 10 16 34 0
-4 -10 -16 -34 0
25 26 27 30 0
-25 -26 -27 -30 0
5 11 17 35 0
-5 -11 -17 -35 0
31 32 33 36 0
-31 -32 -33 -36 0
6 12 18 36 0
-6 -12 -18 -36 0
1 2 3 5 0
-1 -2 -3 -5 0
1 7 13 25 0
-1 -7 -13 -25 0
7 8 9 11 0
-7 -8 -9 -11 0
2 8 14 26 0
-2 -8 -14 -26 0
13 14 15 17 0
-13 -14 -15 -17 0
3 9 15 27 0
-3 -9 -15 -27 0
19 20 21 23 0
-19 -20 -21 -23 0
4 10 16 28 0
-4 -10 -16 -28 0
25 26 27 29 0
-25 -26 -27 -29 0
5 11 17 29 0
-5 -11 -17 -29 0
31 32 33 35 0
-31 -32 -33 -35 0
6 12 18 30 0
-6 -12 -18 -30 0
1 2 3 4 0
-1 -2 -3 -4 0
1 7 13 19 0
-1 -7 -13 -19 0
7 8 9 10 0
-7 -8 -9 -10 0
2 8 14 20 0
-2 -8 -14 -20 0
13 14 15 16 0
-13 -14 -15 -16 0
3 9 15 21 0
-3 -9 -15 -21 0
19 20 21 22 0
-19 -20 -21 -22 0
4 10 16 22 0
-4 -10 -16 -22 0
25 26 27 28 0
-25 -26 -27 -28 0
5 11 17 23 0
-5 -11 -17 -23 0
31 32 33 34 0
-31 -32 -33 -34 0
6 12 18 24 0
-6 -12 -18 -24 0
51 0
-51 -151 -152 -153 -154 -155 -156 0
51 151 0
51 152 0
51 153 0
51 154 0
51 155 0
51 156 0
-416 151 0
-415 151 0
415 416 -151 0
1 -415 0
7 -415 0
-1 -7 415 0
1 -416 0
7 -416 0
-1 -7 416 0
-418 152 0
-417 152 0
417 418 -152 0
2 -417 0
8 -417 0
-2 -8 417 0
2 -418 0
8 -418 0
-2 -8 418 0
-420 153 0
-419 153 0
419 420 -153 0
3 -419 0
9 -419 0
-3 -9 419 0
3 -420 0
9 -420 0
-3 -9 420 0
-422 154 0
-421 154 0
421 422 -154 0
4 -421 0
10 -421 0
-4 -10 421 0
4 -422 0
10 -422 0
-4 -10 422 0
-424 155 0
-423 155 0
423 424 -155 0
5 -423 0
11 -423 0
-5 -11 423 0
5 -424 0
11 -424 0
-5 -11 424 0
-426 156 0
-425 156 0
425 426 -156 0
6 -425 0
12 -425 0
-6 -12 425 0
6 -426 0
12 -426 0
-6 -12 426 0
50 0
-50 -145 -146 -147 -148 -149 -150 0
50 145 0
50 146 0
50 147 0
50 148 0
50 149 0
50 150 0
-404 145 0
-403 145 0
403 404 -145 0
1 -403 0
13 -403 0
-1 -13 403 0
1 -404 0
13 -404 0
-1 -13 404 0
-406 146 0
-405 146 0
405 406 -146 0
2 -405 0
14 -405 0
-2 -14 405 0
2 -406 0
14 -406 0
-2 -14 406 0
-408 147 0
-407 147 0
407 408 -147 0
3 -407 0
15 -407 0
-3 -15 407 0
3 -408 0
15 -408 0
-3 -15 408 0
-410 148 0
-409 148 0
409 410 -148 0
4 -409 0
16 -409 0
-4 -16 409 0
4 -410 0
16 -410 0
-4 -16 410 0
-412 149 0
-411 149 0
411 412 -149 0
5 -411 0
17 -411 0
-5 -17 411 0
5 -412 0
17 -412 0
-5 -17 412 0
-414 150 0
-413 150 0
413 414 -150 0
6 -413 0
18 -413 0
-6 -18 413 0
6 -414 0
18 -414 0
-6 -18 414 0
49 0
-49 -139 -140 -141 -142 -143 -144 0
49 139 0
49 140 0
49 141 0
49 142 0
49 143 0
49 144 0
-392 139 0
-391 139 0
391 392 -139 0
1 -391 0
19 -391 0
-1 -19 391 0
1 -392 0
19 -392 0
-1 -19 392 0
-394 140 0
-393 140 0
393 394 -140 0
2 -393 0
20 -393 0
-2 -20 393 0
2 -394 0
20 -394 0
-2 -20 394 0
-396 141 0
-395 141 0
395 396 -141 0
3 -395 0
21 -395 0
-3 -21 395 0
3 -396 0
21 -396 0
-3 -21 396 0
-398 142 0
-397 142 0
397 398 -142 0
4 -397 0
22 -397 0
-4 -22 397 0
4 -398 0
22 -398 0
-4 -22 398 0
-400 143 0
-399 143 0
399 400 -143 0
5 -399 0
23 -399 0
-5 -23 399 0
5 -400 0
23 -400 0
-5 -23 400 0
-402 144 0
-401 144 0
401 402 -144 0
6 -401 0
24 -401 0
-6 -24 401 0
6 -402 0
24 -402 0
-6 -24 402 0
48 0
-48 -133 -134 -135 -136 -137 -138 0
48 133 0
48 134 0
48 135 0
48 136 0
48 137 0
48 138 0
-380 133 0
-379 133 0
379 380 -133 0
1 -379 0
25 -379 0
-1 -25 379 0
1 -380 0
25 -380 0
-1 -25 380 0
-382 134 0
-381 134 0
381 382 -134 0
2 -381 0
26 -381 0
-2 -26 381 0
2 -382 0
26 -382 0
-2 -26 382 0
-384 135 0
-383 135 0
383 384 -135 0
3 -383 0
27 -383 0
-3 -27 383 0
3 -384 0
27 -384 0
-3 -27 384 0
-386 136 0
-385 136 0
385 386 -136 0
4 -385 0
28 -385 0
-4 -28 385 0
4 -386 0
28 -386 0
-4 -28 386 0
-388 137 0
-387 137 0
387 388 -137 0
5 -387 0
29 -387 0
-5 -29 387 0
5 -388 0
29 -388 0
-5 -29 388 0
-390 138 0
-389 138 0
389 390 -138 0
6 -389 0
30 -389 0
-6 -30 389 0
6 -390 0
30 -390 0
-6 -30 390 0
47 0
-47 -127 -128 -129 -130 -131 -132 0
47 127 0
47 128 0
47 129 0
47 130 0
47 131 0
47 132 0
-368 127 0
-367 127 0
367 368 -127 0
1 -367 0
31 -367 0
-1 -31 367 0
1 -368 0
31 -368 0
-1 -31 368 0
-370 128 0
-369 128 0
369 370 -128 0
2 -369 0
32 -369 0
-2 -32 369 0
2 -370 0
32 -370 0
-2 -32 370 0
-372 129 0
-371 129 0
371 372 -129 0
3 -371 0
33 -371 0
-3 -33 371 0
3 -372 0
33 -372 0
-3 -33 372 0
-374 130 0
-373 130 0
373 374 -130 0
4 -373 0
34 -373 0
-4 -34 373 0
4 -374 0
34 -374 0
-4 -34 374 0
-376 131 0
-375 131 0
375 376 -131 0
5 -375 0
35 -375 0
-5 -35 375 0
5 -376 0
35 -376 0
-5 -35 376 0
-378 132 0
-377 132 0
377 378 -132 0
6 -377 0
36 -377 0
-6 -36 377 0
6 -378 0
36 -378 0
-6 -36 378 0
46 0
-46 -121 -122 -123 -124 -125 -126 0
46 121 0
46 122 0
46 123 0
46 124 0
46 125 0
46 126 0
-356 121 0
-355 121 0
355 356 -121 0
7 -355 0
13 -355 0
-7 -13 355 0
7 -356 0
13 -356 0
-7 -13 356 0
-358 122 0
-357 122 0
357 358 -122 0
8 -357 0
14 -357 0
-8 -14 357 0
8 -358 0
14 -358 0
-8 -14 358 0
-360 123 0
-359 123 0
359 360 -123 0
9 -359 0
15 -359 0
-9 -15 359 0
9 -360 0
15 -360 0
-9 -15 360 0
-362 124 0
-361 124 0
361 362 -124 0
10 -361 0
16 -361 0
-10 -16 361 0
10 -362 0
16 -362 0
-10 -16 362 0
-364 125 0
-363 125 0
363 364 -125 0
11 -363 0
17 -363 0
-11 -17 363 0
11 -364 0
17 -364 0
-11 -17 364 0
-366 126 0
-365 126 0
365 366 -126 0
12 -365 0
18 -365 0
-12 -18 365 0
12 -366 0
18 -366 0
-12 -18 366 0
45 0
-45 -115 -116 -117 -118 -119 -120 0
45 115 0
45 116 0
45 117 0
45 118 0
45 119 0
45 120 0
-344 115 0
-343 115 0
343 344 -115 0
7 -343 0
19 -343 0
-7 -19 343 0
7 -344 0
19 -344 0
-7 -19 344 0
-346 116 0
-345 116 0
345 346 -116 0
8 -345 0
20 -345 0
-8 -20 345 0
8 -346 0
20 -346 0
-8 -20 346 0
-348 117 0
-347 117 0
347 348 -117 0
9 -347 0
21 -347 0
-9 -21 347 0
9 -348 0
21 -348 0
-9 -21 348 0
-350 118 0
-349 118 0
349 350 -118 0
10 -349 0
22 -349 0
-10 -22 349 0
10 -350 0
22 -350 0
-10 -22 350 0
-352 119 0
-351 119 0
351 352 -119 0
11 -351 0
23 -351 0
-11 -23 351 0
11 -352 0
23 -352 0
-11 -23 352 0
-354 120 0
-353 120 0
353 354 -120 0
12 -353 0
24 -353 0
-12 -24 353 0
12 -354 0
24 -354 0
-12 -24 354 0
44 0
-44 -109 -110 -111 -112 -113 -114 0
44 109 0
44 110 0
44 111 0
44 112 0
44 113 0
44 114 0
-332 109 0
-331 109 0
331 332 -109 0
7 -331 0
25 -331 0
-7 -25 331 0
7 -332 0
25 -332 0
-7 -25 332 0
-334 110 0
-333 110 0
333 334 -110 0
8 -333 0
26 -333 0
-8 -26 333 0
8 -334 0
26 -334 0
-8 -26 334 0
-336 111 0
-335 111 0
335 336 -111 0
9 -335 0
27 -335 0
-9 -27 335 0
9 -336 0
27 -336 0
-9 -27 336 0
-338 112 0
-337 112 0
337 338 -112 0
10 -337 0
28 -337 0
-10 -28 337 0
10 -338 0
28 -338 0
-10 -28 338 0
-340 113 0
-339 113 0
339 340 -113 0
11 -339 0
29 -339 0
-11 -29 339 0
11 -340 0
29 -340 0
-11 -29 340 0
-342 114 0
-341 114 0
341 342 -114 0
12 -341 0
30 -341 0
-12 -30 341 0
12 -342 0
30 -342 0
-12 -30 342 0
43 0
-43 -103 -104 -105 -106 -107 -108 0
43 103 0
43 104 0
43 105 0
43 106 0
43 107 0
43 108 0
-320 103 0
-319 103 0
319 320 -103 0
7 -319 0
31 -319 0
-7 -31 319 0
7 -320 0
31 -320 0
-7 -31 320 0
-322 104 0
-321 104 0
321 322 -104 0
8 -321 0
32 -321 0
-8 -32 321 0
8 -322 0
32 -322 0
-8 -32 322 0
-324 105 0
-323 105 0
323 324 -105 0
9 -323 0
33 -323 0
-9 -33 323 0
9 -324 0
33 -324 0
-9 -33 324 0
-326 106 0
-325 106 0
325 326 -106 0
10 -325 0
34 -325 0
-10 -34 325 0
10 -326 0
34 -326 0
-10 -34 326 0
-328 107 0
-327 107 0
327 328 -107 0
11 -327 0
35 -327 0
-11 -35 327 0
11 -328 0
35 -328 0
-11 -35 328 0
-330 108 0
-329 108 0
329 330 -108 0
12 -329 0
36 -329 0
-12 -36 329 0
12 -330 0
36 -330 0
-12 -36 330 0
42 0
-42 -97 -98 -99 -100 -101 -102 0
42 97 0
42 98 0
42 99 0
42 100 0
42 101 0
42 102 0
-308 97 0
-307 97 0
307 308 -97 0
13 -307 0
19 -307 0
-13 -19 307 0
13 -308 0
19 -308 0
-13 -19 308 0
-310 98 0
-309 98 0
309 310 -98 0
14 -309 0
20 -309 0
-14 -20 309 0
14 -310 0
20 -310 0
-14 -20 310 0
-312 99 0
-311 99 0
311 312 -99 0
15 -311 0
21 -311 0
-15 -21 311 0
15 -312 0
21 -312 0
-15 -21 312 0
-314 100 0
-313 100 0
313 314 -100 0
16 -313 0
22 -313 0
-16 -22 313 0
16 -314 0
22 -314 0
-16 -22 314 0
-316 101 0
-315 101 0
315 316 -101 0
17 -315 0
23 -315 0
-17 -23 315 0
17 -316 0
23 -316 0
-17 -23 316 0
-318 102 0
-317 102 0
317 318 -102 0
18 -317 0
24 -317 0
-18 -24 317 0
18 -318 0
24 -318 0
-18 -24 318 0
41 0
-41 -91 -92 -93 -94 -95 -96 0
41 91 0
41 92 0
41 93 0
41 94 0
41 95 0
41 96 0
-296 91 0
-295 91 0
295 296 -91 0
13 -295 0
25 -295 0
-13 -25 295 0
13 -296 0
25 -296 0
-13 -25 296 0
-298 92 0
-297 92 0
297 298 -92 0
14 -297 0
26 -297 0
-14 -26 297 0
14 -298 0
26 -298 0
-14 -26 298 0
-300 93 0
-299 93 0
299 300 -93 0
15 -299 0
27 -299 0
-15 -27 299 0
15 -300 0
27 -300 0
-15 -27 300 0
-302 94 0
-301 94 0
301 302 -94 0
16 -301 0
28 -301 0
-16 -28 301 0
16 -302 0
28 -302 0
-16 -28 302 0
-304 95 0
-303 95 0
303 304 -95 0
17 -303 0
29 -303 0
-17 -29 303 0
17 -304 0
29 -304 0
-17 -29 304 0
-306 96 0
-305 96 0
305 306 -96 0
18 -305 0
30 -305 0
-18 -30 305 0
18 -306 0
30 -306 0
-18 -30 306 0
40 0
-40 -85 -86 -87 -88 -89 -90 0
40 85 0
40 86 0
40 87 0
40 88 0
40 89 0
40 90 0
-284 85 0
-283 85 0
283 284 -85 0
13 -283 0
31 -283 0
-13 -31 283 0
13 -284 0
31 -284 0
-13 -31 284 0
-286 86 0
-285 86 0
285 286 -86 0
14 -285 0
32 -285 0
-14 -32 285 0
14 -286 0
32 -286 0
-14 -32 286 0
-288 87 0
-287 87 0
287 288 -87 0
15 -287 0
33 -287 0
-15 -33 287 0
15 -288 0
33 -288 0
-15 -33 288 0
-290 88 0
-289 88 0
289 290 -88 0
16 -289 0
34 -289 0
-16 -34 289 0
16 -290 0
34 -290 0
-16 -34 290 0
-292 89 0
-291 89 0
291 292 -89 0
17 -291 0
35 -291 0
-17 -35 291 0
17 -292 0
35 -292 0
-17 -35 292 0
-294 90 0
-293 90 0
293 294 -90 0
18 -293 0
36 -293 0
-18 -36 293 0
18 -294 0
36 -294 0
-18 -36 294 0
39 0
-39 -79 -80 -81 -82 -83 -84 0
39 79 0
39 80 0
39 81 0
39 82 0
39 83 0
39 84 0
-272 79 0
-271 79 0
271 272 -79 0
19 -271 0
25 -271 0
-19 -25 271 0
19 -272 0
25 -272 0
-19 -25 272 0
-274 80 0
-273 80 0
273 274 -80 0
20 -273 0
26 -273 0
-20 -26 273 0
20 -274 0
26 -274 0
-20 -26 274 0
-276 81 0
-275 81 0
275 276 -81 0
21 -275 0
27 -275 0
-21 -27 275 0
21 -276 0
27 -276 0
-21 -27 276 0
-278 82 0
-277 82 0
277 278 -82 0
22 -277 0
28 -277 0
-22 -28 277 0
22 -278 0
28 -278 0
-22 -28 278 0
-280 83 0
-279 83 0
279 280 -83 0
23 -279 0
29 -279 0
-23 -29 279 0
23 -280 0
29 -280 0
-23 -29 280 0
-282 84 0
-281 84 0
281 282 -84 0
24 -281 0
30 -281 0
-24 -30 281 0
24 -282 0
30 -282 0
-24 -30 282 0
38 0
-38 -73 -74 -75 -76 -77 -78 0
38 73 0
38 74 0
38 75 0
38 76 0
38 77 0
38 78 0
-260 73 0
-259 73 0
259 260 -73 0
19 -259 0
31 -259 0
-19 -31 259 0
19 -260 0
31 -260 0
-19 -31 260 0
-262 74 0
-261 74 0
261 262 -74 0
20 -261 0
32 -261 0
-20 -32 261 0
20 -262 0
32 -262 0
-20 -32 262 0
-264 75 0
-263 75 0
263 264 -75 0
21 -263 0
33 -263 0
-21 -33 263 0
21 -264 0
33 -264 0
-21 -33 264 0
-266 76 0
-265 76 0
265 266 -76 0
22 -265 0
34 -265 0
-22 -34 265 0
22 -266 0
34 -266 0
-22 -34 266 0
-268 77 0
-267 77 0
267 268 -77 0
23 -267 0
35 -267 0
-23 -35 267 0
23 -268 0
35 -268 0
-23 -35 268 0
-270 78 0
-269 78 0
269 270 -78 0
24 -269 0
36 -269 0
-24 -36 269 0
24 -270 0
36 -270 0
-24 -36 270 0
37 0
-37 -67 -68 -69 -70 -71 -72 0
37 67 0
37 68 0
37 69 0
37 70 0
37 71 0
37 72 0
-248 67 0
-247 67 0
247 248 -67 0
25 -247 0
31 -247 0
-25 -31 247 0
25 -248 0
31 -248 0
-25 -31 248 0
-250 68 0
-249 68 0
249 250 -68 0
26 -249 0
32 -249 0
-26 -32 249 0
26 -250 0
32 -250 0
-26 -32 250 0
-252 69 0
-251 69 0
251 252 -69 0
27 -251 0
33 -251 0
-27 -33 251 0
27 -252 0
33 -252 0
-27 -33 252 0
-254 70 0
-253 70 0
253 254 -70 0
28 -253 0
34 -253 0
-28 -34 253 0
28 -254 0
34 -254 0
-28 -34 254 0
-256 71 0
-255 71 0
255 256 -71 0
29 -255 0
35 -255 0
-29 -35 255 0
29 -256 0
35 -256 0
-29 -35 256 0
-258 72 0
-257 72 0
257 258 -72 0
30 -257 0
36 -257 0
-30 -36 257 0
30 -258 0
36 -258 0
-30 -36 258 0
66 0
-66 -241 -242 -243 -244 -245 -246 0
66 241 0
66 242 0
66 243 0
66 244 0
66 245 0
66 246 0
-596 241 0
-595 241 0
595 596 -241 0
1 -595 0
2 -595 0
-1 -2 595 0
1 -596 0
2 -596 0
-1 -2 596 0
-598 242 0
-597 242 0
597 598 -242 0
7 -597 0
8 -597 0
-7 -8 597 0
7 -598 0
8 -598 0
-7 -8 598 0
-600 243 0
-599 243 0
599 600 -243 0
13 -599 0
14 -599 0
-13 -14 599 0
13 -600 0
14 -600 0
-13 -14 600 0
-602 244 0
-601 244 0
601 602 -244 0
19 -601 0
20 -601 0
-19 -20 601 0
19 -602 0
20 -602 0
-19 -20 602 0
-604 245 0
-603 245 0
603 604 -245 0
25 -603 0
26 -603 0
-25 -26 603 0
25 -604 0
26 -604 0
-25 -26 604 0
-606 246 0
-605 246 0
605 606 -246 0
31 -605 0
32 -605 0
-31 -32 605 0
31 -606 0
32 -606 0
-31 -32 606 0
65 0
-65 -235 -236 -237 -238 -239 -240 0
65 235 0
65 236 0
65 237 0
65 238 0
65 239 0
65 240 0
-584 235 0
-583 235 0
583 584 -235 0
1 -583 0
3 -583 0
-1 -3 583 0
1 -584 0
3 -584 0
-1 -3 584 0
-586 236 0
-585 236 0
585 586 -236 0
7 -585 0
9 -585 0
-7 -9 585 0
7 -586 0
9 -586 0
-7 -9 586 0
-588 237 0
-587 237 0
587 588 -237 0
13 -587 0
15 -587 0
-13 -15 587 0
13 -588 0
15 -588 0
-13 -15 588 0
-590 238 0
-589 238 0
589 590 -238 0
19 -589 0
21 -589 0
-19 -21 589 0
19 -590 0
21 -590 0
-19 -21 590 0
-592 239 0
-591 239 0
591 592 -239 0
25 -591 0
27 -591 0
-25 -27 591 0
25 -592 0
27 -592 0
-25 -27 592 0
-594 240 0
-593 240 0
593 594 -240 0
31 -593 0
33 -593 0
-31 -33 593 0
31 -594 0
33 -594 0
-31 -33 594 0
64 0
-64 -229 -230 -231 -232 -233 -234 0
64 229 0
64 230 0
64 231 0
64 232 0
64 233 0
64 234 0
-572 229 0
-571 229 0
571 572 -229 0
1 -571 0
4 -571 0
-1 -4 571 0
1 -572 0
4 -572 0
-1 -4 572 0
-574 230 0
-573 230 0
573 574 -230 0
7 -573 0
10 -573 0
-7 -10 573 0
7 -574 0
10 -574 0
-7 -10 574 0
-576 231 0
-575 231 0
575 576 -231 0
13 -575 0
16 -575 0
-13 -16 575 0
13 -576 0
16 -576 0
-13 -16 576 0
-578 232 0
-577 232 0
577 578 -232 0
19 -577 0
22 -577 0
-19 -22 577 0
19 -578 0
22 -578 0
-19 -22 578 0
-580 233 0
-579 233 0
579 580 -233 0
25 -579 0
28 -579 0
-25 -28 579 0
25 -580 0
28 -580 0
-25 -28 580 0
-582 234 0
-581 234 0
581 582 -234 0
31 -581 0
34 -581 0
-31 -34 581 0
31 -582 0
34 -582 0
-31 -34 582 0
63 0
-63 -223 -224 -225 -226 -227 -228 0
63 223 0
63 224 0
63 225 0
63 226 0
63 227 0
63 228 0
-560 223 0
-559 223 0
559 560 -223 0
1 -559 0
5 -559 0
-1 -5 559 0
1 -560 0
5 -560 0
-1 -5 560 0
-562 224 0
-561 224 0
561 562 -224 0
7 -561 0
11 -561 0
-7 -11 561 0
7 -562 0
11 -562 0
-7 -11 562 0
-564 225 0
-563 225 0
563 564 -225 0
13 -563 0
17 -563 0
-13 -17 563 0
13 -564 0
17 -564 0
-13 -17 564 0
-566 226 0
-565 226 0
565 566 -226 0
19 -565 0
23 -565 0
-19 -23 565 0
19 -566 0
23 -566 0
-19 -23 566 0
-568 227 0
-567 227 0
567 568 -227 0
25 -567 0
29 -567 0
-25 -29 567 0
25 -568 0
29 -568 0
-25 -29 568 0
-570 228 0
-569 228 0
569 570 -228 0
31 -569 0
35 -569 0
-31 -35 569 0
31 -570 0
35 -570 0
-31 -35 570 0
62 0
-62 -217 -218 -219 -220 -221 -222 0
62 217 0
62 218 0
62 219 0
62 220 0
62 221 0
62 222 0
-548 217 0
-547 217 0
547 548 -217 0
1 -547 0
6 -547 0
-1 -6 547 0
1 -548 0
6 -548 0
-1 -6 548 0
-550 218 0
-549 218 0
549 550 -218 0
7 -549 0
12 -549 0
-7 -12 549 0
7 -550 0
12 -550 0
-7 -12 550 0
-552 219 0
-551 219 0
551 552 -219 0
13 -551 0
18 -551 0
-13 -18 551 0
13 -552 0
18 -552 0
-13 -18 552 0
-554 220 0
-553 220 0
553 554 -220 0
19 -553 0
24 -553 0
-19 -24 553 0
19 -554 0
24 -554 0
-19 -24 554 0
-556 221 0
-555 221 0
555 556 -221 0
25 -555 0
30 -555 0
-25 -30 555 0
25 -556 0
30 -556 0
-25 -30 556 0
-558 222 0
-557 222 0
557 558 -222 0
31 -557 0
36 -557 0
-31 -36 557 0
31 -558 0
36 -558 0
-31 -36 558 0
61 0
-61 -211 -212 -213 -214 -215 -216 0
61 211 0
61 212 0
61 213 0
61 214 0
61 215 0
61 216 0
-536 211 0
-535 211 0
535 536 -211 0
2 -535 0
3 -535 0
-2 -3 535 0
2 -536 0
3 -536 0
-2 -3 536 0
-538 212 0
-537 212 0
537 538 -212 0
8 -537 0
9 -537 0
-8 -9 537 0
8 -538 0
9 -538 0
-8 -9 538 0
-540 213 0
-539 213 0
539 540 -213 0
14 -539 0
15 -539 0
-14 -15 539 0
14 -540 0
15 -540 0
-14 -15 540 0
-542 214 0
-541 214 0
541 542 -214 0
20 -541 0
21 -541 0
-20 -21 541 0
20 -542 0
21 -542 0
-20 -21 542 0
-544 215 0
-543 215 0
543 544 -215 0
26 -543 0
27 -543 0
-26 -27 543 0
26 -544 0
27 -544 0
-26 -27 544 0
-546 216 0
-545 216 0
545 546 -216 0
32 -545 0
33 -545 0
-32 -33 545 0
32 -546 0
33 -546 0
-32 -33 546 0
60 0
-60 -205 -206 -207 -208 -209 -210 0
60 205 0
60 206 0
60 207 0
60 208 0
60 209 0
60 210 0
-524 205 0
-523 205 0
523 524 -205 0
2 -523 0
4 -523 0
-2 -4 523 0
2 -524 0
4 -524 0
-2 -4 524 0
-526 206 0
-525 206 0
525 526 -206 0
8 -525 0
10 -525 0
-8 -10 525 0
8 -526 0
10 -526 0
-8 -10 526 0
-528 207 0
-527 207 0
527 528 -207 0
14 -527 0
16 -527 0
-14 -16 527 0
14 -528 0
16 -528 0
-14 -16 528 0
-530 208 0
-529 208 0
529 530 -208 0
20 -529 0
22 -529 0
-20 -22 529 0
20 -530 0
22 -530 0
-20 -22 530 0
-532 209 0
-531 209 0
531 532 -209 0
26 -531 0
28 -531 0
-26 -28 531 0
26 -532 0
28 -532 0
-26 -28 532 0
-534 210 0
-533 210 0
533 534 -210 0
32 -533 0
34 -533 0
-32 -34 533 0
32 -534 0
34 -534 0
-32 -34 534 0
59 0
-59 -199 -200 -201 -202 -203 -204 0
59 199 0
59 200 0
59 201 0
59 202 0
59 203 0
59 204 0
-512 199 0
-511 199 0
511 512 -199 0
2 -511 0
5 -511 0
-2 -5 511 0
2 -512 0
5 -512 0
-2 -5 512 0
-514 200 0
-513 200 0
513 514 -200 0
8 -513 0
11 -513 0
-8 -11 513 0
8 -514 0
11 -514 0
-8 -11 514 0
-516 201 0
-515 201 0
515 516 -201 0
14 -515 0
17 -515 0
-14 -17 515 0
14 -516 0
17 -516 0
-14 -17 516 0
-518 202 0
-517 202 0
517 518 -202 0
20 -517 0
23 -517 0
-20 -23 517 0
20 -518 0
23 -518 0
-20 -23 518 0
-520 203 0
-519 203 0
519 520 -203 0
26 -519 0
29 -519 0
-26 -29 519 0
26 -520 0
29 -520 0
-26 -29 520 0
-522 204 0
-521 204 0
521 522 -204 0
32 -521 0
35 -521 0
-32 -35 521 0
32 -522 0
35 -522 0
-32 -35 522 0
58 0
-58 -193 -194 -195 -196 -197 -198 0
58 193 0
58 194 0
58 195 0
58 196 0
58 197 0
58 198 0
-500 193 0
-499 193 0
499 500 -193 0
2 -499 0
6 -499 0
-2 -6 499 0
2 -500 0
6 -500 0
-2 -6 500 0
-502 194 0
-501 194 0
501 502 -194 0
8 -501 0
12 -501 0
-8 -12 501 0
8 -502 0
12 -502 0
-8 -12 502 0
-504 195 0
-503 195 0
503 504 -195 0
14 -503 0
18 -503 0
-14 -18 503 0
14 -504 0
18 -504 0
-14 -18 504 0
-506 196 0
-505 196 0
505 506 -196 0
20 -505 0
24 -505 0
-20 -24 505 0
20 -506 0
24 -506 0
-20 -24 506 0
-508 197 0
-507 197 0
507 508 -197 0
26 -507 0
30 -507 0
-26 -30 507 0
26 -508 0
30 -508 0
-26 -30 508 0
-510 198 0
-509 198 0
509 510 -198 0
32 -509 0
36 -509 0
-32 -36 509 0
32 -510 0
36 -510 0
-32 -36 510 0
57 0
-57 -187 -188 -189 -190 -191 -192 0
57 187 0
57 188 0
57 189 0
57 190 0
57 191 0
57 192 0
-488 187 0
-487 187 0
487 488 -187 0
3 -487 0
4 -487 0
-3 -4 487 0
3 -488 0
4 -488 0
-3 -4 488 0
-490 188 0
-489 188 0
489 490 -188 0
9 -489 0
10 -489 0
-9 -10 489 0
9 -490 0
10 -490 0
-9 -10 490 0
-492 189 0
-491 189 0
491 492 -189 0
15 -491 0
16 -491 0
-15 -16 491 0
15 -492 0
16 -492 0
-15 -16 492 0
-494 190 0
-493 190 0
493 494 -190 0
21 -493 0
22 -493 0
-21 -22 493 0
21 -494 0
22 -494 0
-21 -22 494 0
-496 191 0
-495 191 0
495 496 -191 0
27 -495 0
28 -495 0
-27 -28 495 0
27 -496 0
28 -496 0
-27 -28 496 0
-498 192 0
-497 192 0
497 498 -192 0
33 -497 0
34 -497 0
-33 -34 497 0
33 -498 0
34 -498 0
-33 -34 498 0
56 0
-56 -181 -182 -183 -184 -185 -186 0
56 181 0
56 182 0
56 183 0
56 184 0
56 185 0
56 186 0
-476 181 0
-475 181 0
475 476 -181 0
3 -475 0
5 -475 0
-3 -5 475 0
3 -476 0
5 -476 0
-3 -5 476 0
-478 182 0
-477 182 0
477 478 -182 0
9 -477 0
11 -477 0
-9 -11 477 0
9 -478 0
11 -478 0
-9 -11 478 0
-480 183 0
-479 183 0
479 480 -183 0
15 -479 0
17 -479 0
-15 -17 479 0
15 -480 0
17 -480 0
-15 -17 480 0
-482 184 0
-481 184 0
481 482 -184 0
21 -481 0
23 -481 0
-21 -23 481 0
21 -482 0
23 -482 0
-21 -23 482 0
-484 185 0
-483 185 0
483 484 -185 0
27 -483 0
29 -483 0
-27 -29 483 0
27 -484 0
29 -484 0
-27 -29 484 0
-486 186 0
-485 186 0
485 486 -186 0
33 -485 0
35 -485 0
-33 -35 485 0
33 -486 0
35 -486 0
-33 -35 486 0
55 0
-55 -175 -176 -177 -178 -179 -180 0
55 175 0
55 176 0
55 177 0
55 178 0
55 179 0
55 180 0
-464 175 0
-463 175 0
463 464 -175 0
3 -463 0
6 -463 0
-3 -6 463 0
3 -464 0
6 -464 0
-3 -6 464 0
-466 176 0
-465 176 0
465 466 -176 0
9 -465 0
12 -465 0
-9 -12 465 0
9 -466 0
12 -466 0
-9 -12 466 0
-468 177 0
-467 177 0
467 468 -177 0
15 -467 0
18 -467 0
-15 -18 467 0
15 -468 0
18 -468 0
-15 -18 468 0
-470 178 0
-469 178 0
469 470 -178 0
21 -469 0
24 -469 0
-21 -24 469 0
21 -470 0
24 -470 0
-21 -24 470 0
-472 179 0
-471 179 0
471 472 -179 0
27 -471 0
30 -471 0
-27 -30 471 0
27 -472 0
30 -472 0
-27 -30 472 0
-474 180 0
-473 180 0
473 474 -180 0
33 -473 0
36 -473 0
-33 -36 473 0
33 -474 0
36 -474 0
-33 -36 474 0
54 0
-54 -169 -170 -171 -172 -173 -174 0
54 169 0
54 170 0
54 171 0
54 172 0
54 173 0
54 174 0
-452 169 0
-451 169 0
451 452 -169 0
4 -451 0
5 -451 0
-4 -5 451 0
4 -452 0
5 -452 0
-4 -5 452 0
-454 170 0
-453 170 0
453 454 -170 0
10 -453 0
11 -453 0
-10 -11 453 0
10 -454 0
11 -454 0
-10 -11 454 0
-456 171 0
-455 171 0
455 456 -171 0
16 -455 0
17 -455 0
-16 -17 455 0
16 -456 0
17 -456 0
-16 -17 456 0
-458 172 0
-457 172 0
457 458 -172 0
22 -457 0
23 -457 0
-22 -23 457 0
22 -458 0
23 -458 0
-22 -23 458 0
-460 173 0
-459 173 0
459 460 -173 0
28 -459 0
29 -459 0
-28 -29 459 0
28 -460 0
29 -460 0
-28 -29 460 0
-462 174 0
-461 174 0
461 462 -174 0
34 -461 0
35 -461 0
-34 -35 461 0
34 -462 0
35 -462 0
-34 -35 462 0
53 0
-53 -163 -164 -165 -166 -167 -168 0
53 163 0
53 164 0
53 165 0
53 166 0
53 167 0
53 168 0
-440 163 0
-439 163 0
439 440 -163 0
4 -439 0
6 -439 0
-4 -6 439 0
4 -440 0
6 -440 0
-4 -6 440 0
-442 164 0
-441 164 0
441 442 -164 0
10 -441 0
12 -441 0
-10 -12 441 0
10 -442 0
12 -442 0
-10 -12 442 0
-444 165 0
-443 165 0
443 444 -165 0
16 -443 0
18 -443 0
-16 -18 443 0
16 -444 0
18 -444 0
-16 -18 444 0
-446 166 0
-445 166 0
445 446 -166 0
22 -445 0
24 -445 0
-22 -24 445 0
22 -446 0
24 -446 0
-22 -24 446 0
-448 167 0
-447 167 0
447 448 -167 0
28 -447 0
30 -447 0
-28 -30 447 0
28 -448 0
30 -448 0
-28 -30 448 0
-450 168 0
-449 168 0
449 450 -168 0
34 -449 0
36 -449 0
-34 -36 449 0
34 -450 0
36 -450 0
-34 -36 450 0
52 0
-52 -157 -158 -159 -160 -161 -162 0
52 157 0
52 158 0
52 159 0
52 160 0
52 161 0
52 162 0
-428 157 0
-427 157 0
427 428 -157 0
5 -427 0
6 -427 0
-5 -6 427 0
5 -428 0
6 -428 0
-5 -6 428 0
-430 158 0
-429 158 0
429 430 -158 0
11 -429 0
12 -429 0
-11 -12 429 0
11 -430 0
12 -430 0
-11 -12 430 0
-432 159 0
-431 159 0
431 432 -159 0
17 -431 0
18 -431 0
-17 -18 431 0
17 -432 0
18 -432 0
-17 -18 432 0
-434 160 0
-433 160 0
433 434 -160 0
23 -433 0
24 -433 0
-23 -24 433 0
23 -434 0
24 -434 0
-23 -24 434 0
-436 161 0
-435 161 0
435 436 -161 0
29 -435 0
30 -435 0
-29 -30 435 0
29 -436 0
30 -436 0
-29 -30 436 0
-438 162 0
-437 162 0
437 438 -162 0
35 -437 0
36 -437 0
-35 -36 437 0
35 -438 0
36 -438 0
-35 -36 438 0
